NAME : morphed22-5-11
COMMENT : Generated using the function morphInstances from the R-package netgen (Bossek,2015) - Number of clusters: 5 Alpha: 0.5
TYPE : TSP
DIMENSION : 22
EDGE_WEIGHT_TYPE : EUC_2D
NODE_COORD_SECTION
1 24.7999053669 41.0157866186
2 0.1276210101 54.9569517251
3 50.0720287319 5.0229168797
4 1.594183733 55.5001535387
5 4.7965195118 53.6199135405
6 81.9996650068 21.0135173597
7 26.3727028298 9.4186865662
8 27.4087353605 46.0144705539
9 91.5702766638 68.8281838011
10 12.353828161 38.2958996468
11 10.7599921186 55.3402802045
12 46.797448801 14.9147027721
13 90.7297597896 83.2181726144
14 89.8546715134 74.9997491975
15 70.2999426135 32.1877089275
16 52.4786039497 7.9928606404
17 55.0463927756 29.4773745003
18 37.2162616877 5.3858551995
19 28.4167188962 18.6460606262
20 57.2517964999 26.328686196
21 19.0264811677 51.1052374191
22 77.4948650756 77.0470621097
EOF
